20 380
0 1 63.4
0 2 66.9
0 3 9.6
0 4 44.3
0 5 45.4
0 6 62.7
0 7 50.3
0 8 71.7
0 9 47.0
0 10 19.6
0 11 59.8
0 12 12.2
0 13 40.3
0 14 42.3
0 15 65.8
0 16 55.0
0 17 62.4
0 18 39.1
0 19 9.0
1 2 65.8
1 3 53.7
1 4 50.3
1 5 18.6
1 6 5.1
1 7 72.5
1 8 8.7
1 9 18.7
1 10 57.4
1 11 48.4
1 12 59.1
1 13 43.8
1 14 29.2
1 15 64.4
1 16 24.7
1 17 4.6
1 18 24.9
1 19 54.8
2 3 62.5
2 4 24.0
2 5 55.6
2 6 61.0
2 7 24.4
2 8 68.0
2 9 67.6
2 10 47.4
2 11 17.4
2 12 54.7
2 13 30.9
2 14 42.5
2 15 1.5
2 16 41.2
2 17 69.3
2 18 62.9
2 19 60.9
3 4 38.9
3 5 35.8
3 6 53.1
3 7 48.9
3 8 62.1
3 9 37.6
3 10 17.2
3 11 53.3
3 12 11.5
3 13 33.6
3 14 33.5
3 15 61.2
3 16 46.1
3 17 52.8
3 18 29.6
3 19 2.3
4 5 35.7
4 6 46.3
4 7 22.2
4 8 55.1
4 9 46.9
4 10 25.4
4 11 16.4
4 12 32.5
4 13 7.7
4 14 22.2
4 15 22.7
4 16 27.2
4 17 52.7
4 18 40.9
4 19 37.5
5 6 17.3
5 7 57.1
5 8 26.5
5 9 12.0
5 10 38.9
5 11 39.2
5 12 40.5
5 13 28.3
5 14 13.6
5 15 54.1
5 16 18.0
5 17 19.0
5 18 10.5
5 19 36.6
6 7 68.5
6 8 9.5
6 9 20.7
6 10 55.2
6 11 43.6
6 12 57.6
6 13 40.1
6 14 26.0
6 15 59.6
6 16 20.1
6 17 9.5
6 18 25.4
6 19 54.0
7 8 77.2
7 9 67.6
7 10 31.8
7 11 31.8
7 12 38.5
7 13 28.9
7 14 43.8
7 15 24.1
7 16 49.2
7 17 74.8
7 18 60.7
7 19 46.8
8 9 27.4
8 10 64.7
8 11 50.7
8 12 66.9
8 13 49.2
8 14 35.4
8 15 66.7
8 16 28.1
8 17 11.8
8 18 33.5
8 19 63.1
9 10 45.4
9 11 51.3
9 12 45.2
9 13 39.3
9 14 25.2
9 15 66.1
9 16 29.4
9 17 16.2
9 18 8.3
9 19 39.1
10 11 41.6
10 12 7.3
10 13 23.0
10 14 30.4
10 15 46.3
10 16 42.1
10 17 57.8
10 18 37.2
10 19 15.1
11 12 48.3
11 13 19.7
11 14 27.0
11 15 16.0
11 16 23.8
11 17 52.0
11 18 47.5
11 19 52.3
12 13 29.2
12 14 34.2
12 15 53.6
12 16 46.6
12 17 59.0
12 18 36.9
12 19 9.2
13 14 14.9
13 15 29.5
13 16 22.3
13 17 45.9
13 18 33.2
13 19 32.6
14 15 41.0
14 16 12.7
14 17 31.0
14 18 20.5
14 19 33.5
15 16 39.7
15 17 67.9
15 18 61.4
15 19 59.7
16 17 28.2
16 18 28.1
16 19 46.1
17 18 23.3
17 19 54.0
18 19 30.9
